c nIsolatedPIs 96
c maxPI 39
p cnf 134 286
c gate 40 -11 -34 0
-11 -40 0
-34 -40 0
11 34 40 0
c gate 41 -9 34 0
-9 -41 0
34 -41 0
9 -34 41 0
c gate 42 33 -41 0
33 -42 0
-41 -42 0
-33 41 42 0
c gate 43 -40 42 0
-40 -43 0
42 -43 0
40 -42 43 0
c gate 44 -12 -34 0
-12 -44 0
-34 -44 0
12 34 44 0
c gate 45 -10 34 0
-10 -45 0
34 -45 0
10 -34 45 0
c gate 46 -44 -45 0
-44 -46 0
-45 -46 0
44 45 46 0
c gate 47 -33 46 0
-33 -47 0
46 -47 0
33 -46 47 0
c gate 48 -36 -47 0
-36 -48 0
-47 -48 0
36 47 48 0
c gate 49 -43 48 0
-43 -49 0
48 -49 0
43 -48 49 0
c gate 50 -1 34 0
-1 -50 0
34 -50 0
1 -34 50 0
c gate 51 -3 -34 0
-3 -51 0
-34 -51 0
3 34 51 0
c gate 52 -50 -51 0
-50 -52 0
-51 -52 0
50 51 52 0
c gate 53 33 52 0
33 -53 0
52 -53 0
-33 -52 53 0
c gate 54 -4 -34 0
-4 -54 0
-34 -54 0
4 34 54 0
c gate 55 -2 34 0
-2 -55 0
34 -55 0
2 -34 55 0
c gate 56 -54 -55 0
-54 -56 0
-55 -56 0
54 55 56 0
c gate 57 -33 56 0
-33 -57 0
56 -57 0
33 -56 57 0
c gate 58 36 -57 0
36 -58 0
-57 -58 0
-36 57 58 0
c gate 59 -53 58 0
-53 -59 0
58 -59 0
53 -58 59 0
c gate 60 -49 -59 0
-49 -60 0
-59 -60 0
49 59 60 0
c gate 61 35 -60 0
35 -61 0
-60 -61 0
-35 60 61 0
c gate 62 -7 -34 0
-7 -62 0
-34 -62 0
7 34 62 0
c gate 63 -5 34 0
-5 -63 0
34 -63 0
5 -34 63 0
c gate 64 33 -63 0
33 -64 0
-63 -64 0
-33 63 64 0
c gate 65 -62 64 0
-62 -65 0
64 -65 0
62 -64 65 0
c gate 66 -8 -34 0
-8 -66 0
-34 -66 0
8 34 66 0
c gate 67 -6 34 0
-6 -67 0
34 -67 0
6 -34 67 0
c gate 68 -66 -67 0
-66 -68 0
-67 -68 0
66 67 68 0
c gate 69 -33 68 0
-33 -69 0
68 -69 0
33 -68 69 0
c gate 70 36 -69 0
36 -70 0
-69 -70 0
-36 69 70 0
c gate 71 -65 70 0
-65 -71 0
70 -71 0
65 -70 71 0
c gate 72 -15 -34 0
-15 -72 0
-34 -72 0
15 34 72 0
c gate 73 -13 34 0
-13 -73 0
34 -73 0
13 -34 73 0
c gate 74 33 -73 0
33 -74 0
-73 -74 0
-33 73 74 0
c gate 75 -72 74 0
-72 -75 0
74 -75 0
72 -74 75 0
c gate 76 -16 -34 0
-16 -76 0
-34 -76 0
16 34 76 0
c gate 77 -14 34 0
-14 -77 0
34 -77 0
14 -34 77 0
c gate 78 -76 -77 0
-76 -78 0
-77 -78 0
76 77 78 0
c gate 79 -33 78 0
-33 -79 0
78 -79 0
33 -78 79 0
c gate 80 -36 -79 0
-36 -80 0
-79 -80 0
36 79 80 0
c gate 81 -75 80 0
-75 -81 0
80 -81 0
75 -80 81 0
c gate 82 -71 -81 0
-71 -82 0
-81 -82 0
71 81 82 0
c gate 83 -35 -82 0
-35 -83 0
-82 -83 0
35 82 83 0
c gate 84 38 -83 0
38 -84 0
-83 -84 0
-38 83 84 0
c gate 85 -61 84 0
-61 -85 0
84 -85 0
61 -84 85 0
c gate 86 -21 34 0
-21 -86 0
34 -86 0
21 -34 86 0
c gate 87 -23 -34 0
-23 -87 0
-34 -87 0
23 34 87 0
c gate 88 -86 -87 0
-86 -88 0
-87 -88 0
86 87 88 0
c gate 89 33 88 0
33 -89 0
88 -89 0
-33 -88 89 0
c gate 90 -24 -34 0
-24 -90 0
-34 -90 0
24 34 90 0
c gate 91 -22 34 0
-22 -91 0
34 -91 0
22 -34 91 0
c gate 92 -33 -91 0
-33 -92 0
-91 -92 0
33 91 92 0
c gate 93 -90 92 0
-90 -93 0
92 -93 0
90 -92 93 0
c gate 94 36 -93 0
36 -94 0
-93 -94 0
-36 93 94 0
c gate 95 -89 94 0
-89 -95 0
94 -95 0
89 -94 95 0
c gate 96 -30 34 0
-30 -96 0
34 -96 0
30 -34 96 0
c gate 97 -32 -34 0
-32 -97 0
-34 -97 0
32 34 97 0
c gate 98 -33 -97 0
-33 -98 0
-97 -98 0
33 97 98 0
c gate 99 -96 98 0
-96 -99 0
98 -99 0
96 -98 99 0
c gate 100 -29 34 0
-29 -100 0
34 -100 0
29 -34 100 0
c gate 101 -31 -34 0
-31 -101 0
-34 -101 0
31 34 101 0
c gate 102 33 -101 0
33 -102 0
-101 -102 0
-33 101 102 0
c gate 103 -100 102 0
-100 -103 0
102 -103 0
100 -102 103 0
c gate 104 -36 -103 0
-36 -104 0
-103 -104 0
36 103 104 0
c gate 105 -99 104 0
-99 -105 0
104 -105 0
99 -104 105 0
c gate 106 -35 -105 0
-35 -106 0
-105 -106 0
35 105 106 0
c gate 107 -95 106 0
-95 -107 0
106 -107 0
95 -106 107 0
c gate 108 -17 34 0
-17 -108 0
34 -108 0
17 -34 108 0
c gate 109 -19 -34 0
-19 -109 0
-34 -109 0
19 34 109 0
c gate 110 -108 -109 0
-108 -110 0
-109 -110 0
108 109 110 0
c gate 111 33 110 0
33 -111 0
110 -111 0
-33 -110 111 0
c gate 112 -20 -34 0
-20 -112 0
-34 -112 0
20 34 112 0
c gate 113 -18 34 0
-18 -113 0
34 -113 0
18 -34 113 0
c gate 114 -33 -113 0
-33 -114 0
-113 -114 0
33 113 114 0
c gate 115 -112 114 0
-112 -115 0
114 -115 0
112 -114 115 0
c gate 116 36 -115 0
36 -116 0
-115 -116 0
-36 115 116 0
c gate 117 -111 116 0
-111 -117 0
116 -117 0
111 -116 117 0
c gate 118 -26 34 0
-26 -118 0
34 -118 0
26 -34 118 0
c gate 119 -28 -34 0
-28 -119 0
-34 -119 0
28 34 119 0
c gate 120 -33 -119 0
-33 -120 0
-119 -120 0
33 119 120 0
c gate 121 -118 120 0
-118 -121 0
120 -121 0
118 -120 121 0
c gate 122 -25 34 0
-25 -122 0
34 -122 0
25 -34 122 0
c gate 123 -27 -34 0
-27 -123 0
-34 -123 0
27 34 123 0
c gate 124 33 -123 0
33 -124 0
-123 -124 0
-33 123 124 0
c gate 125 -122 124 0
-122 -125 0
124 -125 0
122 -124 125 0
c gate 126 -36 -125 0
-36 -126 0
-125 -126 0
36 125 126 0
c gate 127 -121 126 0
-121 -127 0
126 -127 0
121 -126 127 0
c gate 128 35 -127 0
35 -128 0
-127 -128 0
-35 127 128 0
c gate 129 -117 128 0
-117 -129 0
128 -129 0
117 -128 129 0
c gate 130 -107 -129 0
-107 -130 0
-129 -130 0
107 129 130 0
c gate 131 -38 -130 0
-38 -131 0
-130 -131 0
38 130 131 0
c gate 132 37 -131 0
37 -132 0
-131 -132 0
-37 131 132 0
c gate 133 -85 132 0
-85 -133 0
132 -133 0
85 -132 133 0
c gate 134 -39 133 0
-39 -134 0
133 -134 0
39 -133 134 0
c PO
134 0
